500
    1   437   437
    2   271   271
    3   253   253
    4   376   376
    5   175   175
    6   377   377
    7   272   272
    8   205   205
    9   165   165
   10   491   491
   11   219   219
   12   282   282
   13   254   254
   14   271   271
   15   457   457
   16   133   133
   17   326   326
   18   460   460
   19   367   367
   20   332   332
   21   357   357
   22   148   148
   23    68    68
   24   336   336
   25    53    53
   26   180   180
   27   317   317
   28    59    59
   29    94    94
   30   268   268
   31   214   214
   32   449   449
   33   458   458
   34   179   179
   35    93    93
   36    47    47
   37   438   438
   38   396   396
   39   315   315
   40   451   451
   41   470   470
   42    43    43
   43    45    45
   44    32    32
   45   205   205
   46   189   189
   47   232   232
   48   173   173
   49   138   138
   50   390   390
   51   421   421
   52   180   180
   53    35    35
   54   361   361
   55   165   165
   56   337   337
   57   183   183
   58   123   123
   59    16    16
   60    62    62
   61   303   303
   62    70    70
   63   329   329
   64    45    45
   65   477   477
   66   317   317
   67    98    98
   68   300   300
   69   301   301
   70   101   101
   71   210   210
   72    42    42
   73    29    29
   74   286   286
   75   114   114
   76   348   348
   77   321   321
   78   408   408
   79   356   356
   80   241   241
   81    76    76
   82    73    73
   83   195   195
   84   115   115
   85   331   331
   86   243   243
   87    43    43
   88   344   344
   89   460   460
   90   104   104
   91   256   256
   92    48    48
   93   479   479
   94    86    86
   95   155   155
   96    30    30
   97   488   488
   98   266   266
   99   133   133
  100   367   367
  101   272   272
  102   364   364
  103   313   313
  104    92    92
  105   250   250
  106   428   428
  107    61    61
  108   266   266
  109   154   154
  110   437   437
  111   337   337
  112   323   323
  113   234   234
  114   248   248
  115   104   104
  116   461   461
  117   453   453
  118   209   209
  119   431   431
  120   144   144
  121   474   474
  122   145   145
  123   180   180
  124   271   271
  125    13    13
  126   203   203
  127   448   448
  128    27    27
  129   401   401
  130   304   304
  131    33    33
  132   498   498
  133   342   342
  134    10    10
  135   436   436
  136   363   363
  137   169   169
  138   394   394
  139   287   287
  140   259   259
  141   403   403
  142   158   158
  143   175   175
  144   328   328
  145   351   351
  146    42    42
  147   408   408
  148   371   371
  149   281   281
  150   496   496
  151   370   370
  152    47    47
  153   480   480
  154   447   447
  155   404   404
  156    86    86
  157   254   254
  158   465   465
  159   112   112
  160   285   285
  161   427   427
  162   500   500
  163   435   435
  164   163   163
  165    28    28
  166   119   119
  167   127   127
  168   475   475
  169    99    99
  170   302   302
  171   187   187
  172   206   206
  173    89    89
  174   111   111
  175   169   169
  176   420   420
  177    23    23
  178    25    25
  179   124   124
  180   220   220
  181   398   398
  182    27    27
  183   282   282
  184   295   295
  185   274   274
  186   263   263
  187   397   397
  188   418   418
  189   337   337
  190    81    81
  191   494   494
  192   308   308
  193   366   366
  194    90    90
  195    30    30
  196   465   465
  197   393   393
  198   386   386
  199   109   109
  200   274   274
  201   386   386
  202   454   454
  203   141   141
  204   411   411
  205   223   223
  206   324   324
  207   309   309
  208    83    83
  209   102   102
  210   376   376
  211   483   483
  212   452   452
  213    12    12
  214   239   239
  215    88    88
  216    26    26
  217   120   120
  218   439   439
  219   182   182
  220   222   222
  221   364   364
  222    91    91
  223   392   392
  224   471   471
  225   118   118
  226    79    79
  227   382   382
  228   305   305
  229   294   294
  230   379   379
  231   452   452
  232    42    42
  233   116   116
  234    40    40
  235   434   434
  236    10    10
  237   222   222
  238    83    83
  239    70    70
  240   308   308
  241   157   157
  242   339   339
  243   426   426
  244   176   176
  245   361   361
  246   327   327
  247     4     4
  248   124   124
  249     2     2
  250   109   109
  251   204   204
  252   342   342
  253   197   197
  254    90    90
  255   337   337
  256    27    27
  257     8     8
  258    29    29
  259    28    28
  260   142   142
  261    75    75
  262   392   392
  263    98    98
  264   444   444
  265   212   212
  266   401   401
  267   297   297
  268   448   448
  269   146   146
  270   327   327
  271    51    51
  272   105   105
  273    34    34
  274    54    54
  275   212   212
  276   207   207
  277    59    59
  278   136   136
  279   337   337
  280   131   131
  281   124   124
  282   307   307
  283   246   246
  284   422   422
  285    52    52
  286   315   315
  287    64    64
  288   421   421
  289   162   162
  290   221   221
  291   227   227
  292   420   420
  293    51    51
  294     2     2
  295    28    28
  296   288   288
  297    46    46
  298   218   218
  299    75    75
  300   276   276
  301   358   358
  302    74    74
  303   262   262
  304   308   308
  305   347   347
  306   237   237
  307   485   485
  308   229   229
  309   439   439
  310   442   442
  311   213   213
  312   125   125
  313   455   455
  314   163   163
  315    32    32
  316   426   426
  317   499   499
  318   365   365
  319   454   454
  320   378   378
  321   326   326
  322    68    68
  323   208   208
  324   207   207
  325   119   119
  326   367   367
  327   375   375
  328    82    82
  329    14    14
  330   218   218
  331   383   383
  332    30    30
  333    20    20
  334   316   316
  335   289   289
  336   353   353
  337   351   351
  338    99    99
  339   138   138
  340   450   450
  341    32    32
  342   136   136
  343   463   463
  344   275   275
  345   458   458
  346   383   383
  347    31    31
  348   307   307
  349   388   388
  350   412   412
  351   376   376
  352   213   213
  353   459   459
  354    76    76
  355   398   398
  356   271   271
  357   367   367
  358   131   131
  359   305   305
  360    66    66
  361   424   424
  362    88    88
  363    38    38
  364   223   223
  365   101   101
  366   410   410
  367   461   461
  368   478   478
  369   262   262
  370    50    50
  371   222   222
  372    43    43
  373   155   155
  374   438   438
  375   386   386
  376   233   233
  377   177   177
  378   241   241
  379    22    22
  380   124   124
  381   147   147
  382   118   118
  383   156   156
  384   161   161
  385   273   273
  386   343   343
  387   429   429
  388   389   389
  389   398   398
  390   449   449
  391   215   215
  392   411   411
  393   473   473
  394   246   246
  395   431   431
  396   429   429
  397   256   256
  398    84    84
  399   250   250
  400   257   257
  401   388   388
  402   133   133
  403   390   390
  404     3     3
  405   320   320
  406   393   393
  407     4     4
  408   295   295
  409     4     4
  410   287   287
  411   210   210
  412   210   210
  413   289   289
  414   436   436
  415   343   343
  416   481   481
  417   340   340
  418   243   243
  419   314   314
  420    20    20
  421   297   297
  422   446   446
  423   201   201
  424   138   138
  425   328   328
  426   422   422
  427   438   438
  428   474   474
  429   283   283
  430   481   481
  431    88    88
  432    68    68
  433   121   121
  434   180   180
  435   453   453
  436   398   398
  437   402   402
  438    81    81
  439   443   443
  440   372   372
  441   375   375
  442   487   487
  443    58    58
  444   352   352
  445   170   170
  446   273   273
  447    89    89
  448    70    70
  449   129   129
  450   270   270
  451   133   133
  452   133   133
  453   444   444
  454   461   461
  455    26    26
  456   359   359
  457   128   128
  458   482   482
  459   200   200
  460   326   326
  461   282   282
  462   153   153
  463     3     3
  464    56    56
  465   278   278
  466   295   295
  467   451   451
  468    77    77
  469   198   198
  470   213   213
  471   461   461
  472    10    10
  473   110   110
  474   276   276
  475   110   110
  476   254   254
  477   478   478
  478   439   439
  479   358   358
  480   160   160
  481   346   346
  482   334   334
  483   468   468
  484    26    26
  485   410   410
  486   295   295
  487   204   204
  488   473   473
  489    15    15
  490   121   121
  491   428   428
  492   367   367
  493   239   239
  494   173   173
  495   271   271
  496   132   132
  497   293   293
  498   302   302
  499   129   129
  500   399   399
83242
